%chk=water.chk
# opt lsda/sto-3g

Title Card Required

0 1
 O                  0.35773265    1.98103481   -0.94379759
 H                  1.31773265    1.98103481   -0.94379759
 H                  0.03727806    2.88597064   -0.94379759

